nK = 1660;
nT = 6;
nI = 14;
L = 29;
TT = 357;
np = 1;
nc = 3;
b = [21, 55, 32, 67, 64, 26, 64, 37, 21, 35, 44, 25, 66, 33];
d = [135, 88, 110, 129, 138, 48, 115, 146, 84, 94, 115, 69, 102, 70];
m = [1.3, 1.7, 1.3, 1.5, 2.2, 2, 1.8, 1.8, 2.5, 1.8, 1.6, 1.4, 1.5, 2.2];
pt = [0.23, 0.21, 0.25, 0.22, 0.26, 0.21];
st = [12.19, 10.92, 11.25, 11.66, 14.3, 8.4];
arc = {<1, 0, 1, 1, 0, 0, 0, [1, 1, 1, 1, 1, 1]>, <2, 1, 2, 1, 0, 0, 0, [1, 1, 1, 1, 1, 1]>, <3, 2, 3, 1, 0, 0, 0, [1, 1, 1, 1, 1, 1]>, <4, 3, 4, 1, 0, 0, 0, [1, 1, 1, 1, 1, 1]>, <5, 4, 5, 1, 0, 0, 0, [1, 1, 1, 1, 1, 1]>, <6, 5, 6, 1, 0, 0, 0, [1, 1, 1, 1, 1, 1]>, <7, 6, 7, 1, 0, 0, 0, [1, 1, 1, 1, 1, 1]>, <8, 7, 8, 1, 0, 0, 0, [1, 1, 1, 1, 1, 1]>, <9, 8, 9, 1, 0, 0, 0, [1, 1, 1, 1, 1, 1]>, <10, 9, 10, 1, 0, 0, 0, [1, 1, 1, 1, 1, 1]>, <11, 10, 11, 1, 0, 0, 0, [1, 1, 1, 1, 1, 1]>, <12, 11, 12, 1, 0, 0, 0, [1, 1, 1, 1, 1, 1]>, <13, 12, 13, 1, 0, 0, 0, [1, 1, 1, 1, 1, 1]>, <14, 13, 14, 1, 0, 0, 0, [1, 1, 1, 1, 1, 1]>, <15, 14, 15, 1, 0, 0, 0, [1, 1, 1, 1, 1, 1]>, <16, 15, 16, 1, 0, 0, 0, [1, 1, 1, 1, 1, 1]>, <17, 16, 17, 1, 0, 0, 0, [1, 1, 1, 1, 1, 1]>, <18, 17, 18, 1, 0, 0, 0, [1, 1, 1, 1, 1, 1]>, <19, 18, 19, 1, 0, 0, 0, [1, 1, 1, 1, 1, 1]>, <20, 19, 20, 1, 0, 0, 0, [1, 1, 1, 1, 1, 1]>, <21, 20, 21, 1, 0, 0, 0, [1, 1, 1, 1, 1, 1]>, <22, 21, 22, 1, 0, 0, 0, [1, 1, 1, 1, 1, 1]>, <23, 22, 23, 1, 0, 0, 0, [1, 1, 1, 1, 1, 1]>, <24, 23, 24, 1, 0, 0, 0, [1, 1, 1, 1, 1, 1]>, <25, 24, 25, 1, 0, 0, 0, [1, 1, 1, 1, 1, 1]>, <26, 25, 26, 1, 0, 0, 0, [1, 1, 1, 1, 1, 1]>, <27, 26, 27, 1, 0, 0, 0, [1, 1, 1, 1, 1, 1]>, <28, 27, 28, 1, 0, 0, 0, [1, 1, 1, 1, 1, 1]>, <29, 28, 29, 1, 0, 0, 0, [1, 1, 1, 1, 1, 1]>, <30, 0, 17, 17, 1, 0, 1, [1, 1, 0, 0, 1, 1]>, <31, 1, 18, 17, 1, 0, 1, [1, 1, 0, 0, 1, 1]>, <32, 2, 19, 17, 1, 0, 1, [1, 1, 0, 0, 1, 1]>, <33, 3, 20, 17, 1, 0, 1, [1, 1, 0, 0, 1, 1]>, <34, 4, 21, 17, 1, 0, 1, [1, 1, 0, 0, 1, 1]>, <35, 5, 22, 17, 1, 0, 1, [1, 1, 0, 0, 1, 1]>, <36, 6, 23, 17, 1, 0, 1, [1, 1, 0, 0, 1, 1]>, <37, 7, 24, 17, 1, 0, 1, [1, 1, 0, 0, 1, 1]>, <38, 8, 25, 17, 1, 0, 1, [1, 1, 0, 0, 1, 1]>, <39, 9, 26, 17, 1, 0, 1, [1, 1, 0, 0, 1, 1]>, <40, 10, 27, 17, 1, 0, 1, [1, 1, 0, 0, 1, 1]>, <41, 11, 28, 17, 1, 0, 1, [1, 1, 0, 0, 1, 1]>, <42, 12, 29, 17, 1, 0, 1, [1, 1, 0, 0, 1, 1]>, <43, 0, 14, 14, 2, 0, 0, [0, 0, 1, 1, 1, 1]>, <44, 1, 15, 14, 2, 0, 0, [0, 0, 1, 1, 1, 1]>, <45, 2, 16, 14, 2, 0, 0, [0, 0, 1, 1, 1, 1]>, <46, 3, 17, 14, 2, 0, 0, [0, 0, 1, 1, 1, 1]>, <47, 4, 18, 14, 2, 0, 0, [0, 0, 1, 1, 1, 1]>, <48, 5, 19, 14, 2, 0, 0, [0, 0, 1, 1, 1, 1]>, <49, 6, 20, 14, 2, 0, 0, [0, 0, 1, 1, 1, 1]>, <50, 7, 21, 14, 2, 0, 0, [0, 0, 1, 1, 1, 1]>, <51, 8, 22, 14, 2, 0, 0, [0, 0, 1, 1, 1, 1]>, <52, 9, 23, 14, 2, 0, 0, [0, 0, 1, 1, 1, 1]>, <53, 10, 24, 14, 2, 0, 0, [0, 0, 1, 1, 1, 1]>, <54, 11, 25, 14, 2, 0, 0, [0, 0, 1, 1, 1, 1]>, <55, 12, 26, 14, 2, 0, 0, [0, 0, 1, 1, 1, 1]>, <56, 13, 27, 14, 2, 0, 0, [0, 0, 1, 1, 1, 1]>, <57, 14, 28, 14, 2, 0, 0, [0, 0, 1, 1, 1, 1]>, <58, 15, 29, 14, 2, 0, 0, [0, 0, 1, 1, 1, 1]>, <59, 0, 16, 16, 3, 1, 0, [1, 0, 0, 1, 1, 1]>, <60, 1, 17, 16, 3, 1, 0, [1, 0, 0, 1, 1, 1]>, <61, 2, 18, 16, 3, 1, 0, [1, 0, 0, 1, 1, 1]>, <62, 3, 19, 16, 3, 1, 0, [1, 0, 0, 1, 1, 1]>, <63, 4, 20, 16, 3, 1, 0, [1, 0, 0, 1, 1, 1]>, <64, 5, 21, 16, 3, 1, 0, [1, 0, 0, 1, 1, 1]>, <65, 6, 22, 16, 3, 1, 0, [1, 0, 0, 1, 1, 1]>, <66, 7, 23, 16, 3, 1, 0, [1, 0, 0, 1, 1, 1]>, <67, 8, 24, 16, 3, 1, 0, [1, 0, 0, 1, 1, 1]>, <68, 9, 25, 16, 3, 1, 0, [1, 0, 0, 1, 1, 1]>, <69, 10, 26, 16, 3, 1, 0, [1, 0, 0, 1, 1, 1]>, <70, 11, 27, 16, 3, 1, 0, [1, 0, 0, 1, 1, 1]>, <71, 12, 28, 16, 3, 1, 0, [1, 0, 0, 1, 1, 1]>, <72, 13, 29, 16, 3, 1, 0, [1, 0, 0, 1, 1, 1]>, <73, 0, 18, 18, 4, 0, 0, [1, 1, 1, 0, 0, 1]>, <74, 1, 19, 18, 4, 0, 0, [1, 1, 1, 0, 0, 1]>, <75, 2, 20, 18, 4, 0, 0, [1, 1, 1, 0, 0, 1]>, <76, 3, 21, 18, 4, 0, 0, [1, 1, 1, 0, 0, 1]>, <77, 4, 22, 18, 4, 0, 0, [1, 1, 1, 0, 0, 1]>, <78, 5, 23, 18, 4, 0, 0, [1, 1, 1, 0, 0, 1]>, <79, 6, 24, 18, 4, 0, 0, [1, 1, 1, 0, 0, 1]>, <80, 7, 25, 18, 4, 0, 0, [1, 1, 1, 0, 0, 1]>, <81, 8, 26, 18, 4, 0, 0, [1, 1, 1, 0, 0, 1]>, <82, 9, 27, 18, 4, 0, 0, [1, 1, 1, 0, 0, 1]>, <83, 10, 28, 18, 4, 0, 0, [1, 1, 1, 0, 0, 1]>, <84, 11, 29, 18, 4, 0, 0, [1, 1, 1, 0, 0, 1]>, <85, 0, 14, 14, 5, 0, 1, [1, 1, 1, 1, 0, 0]>, <86, 1, 15, 14, 5, 0, 1, [1, 1, 1, 1, 0, 0]>, <87, 2, 16, 14, 5, 0, 1, [1, 1, 1, 1, 0, 0]>, <88, 3, 17, 14, 5, 0, 1, [1, 1, 1, 1, 0, 0]>, <89, 4, 18, 14, 5, 0, 1, [1, 1, 1, 1, 0, 0]>, <90, 5, 19, 14, 5, 0, 1, [1, 1, 1, 1, 0, 0]>, <91, 6, 20, 14, 5, 0, 1, [1, 1, 1, 1, 0, 0]>, <92, 7, 21, 14, 5, 0, 1, [1, 1, 1, 1, 0, 0]>, <93, 8, 22, 14, 5, 0, 1, [1, 1, 1, 1, 0, 0]>, <94, 9, 23, 14, 5, 0, 1, [1, 1, 1, 1, 0, 0]>, <95, 10, 24, 14, 5, 0, 1, [1, 1, 1, 1, 0, 0]>, <96, 11, 25, 14, 5, 0, 1, [1, 1, 1, 1, 0, 0]>, <97, 12, 26, 14, 5, 0, 1, [1, 1, 1, 1, 0, 0]>, <98, 13, 27, 14, 5, 0, 1, [1, 1, 1, 1, 0, 0]>, <99, 14, 28, 14, 5, 0, 1, [1, 1, 1, 1, 0, 0]>, <100, 15, 29, 14, 5, 0, 1, [1, 1, 1, 1, 0, 0]>, <101, 0, 17, 17, 6, 0, 0, [1, 1, 1, 0, 0, 1]>, <102, 1, 18, 17, 6, 0, 0, [1, 1, 1, 0, 0, 1]>, <103, 2, 19, 17, 6, 0, 0, [1, 1, 1, 0, 0, 1]>, <104, 3, 20, 17, 6, 0, 0, [1, 1, 1, 0, 0, 1]>, <105, 4, 21, 17, 6, 0, 0, [1, 1, 1, 0, 0, 1]>, <106, 5, 22, 17, 6, 0, 0, [1, 1, 1, 0, 0, 1]>, <107, 6, 23, 17, 6, 0, 0, [1, 1, 1, 0, 0, 1]>, <108, 7, 24, 17, 6, 0, 0, [1, 1, 1, 0, 0, 1]>, <109, 8, 25, 17, 6, 0, 0, [1, 1, 1, 0, 0, 1]>, <110, 9, 26, 17, 6, 0, 0, [1, 1, 1, 0, 0, 1]>, <111, 10, 27, 17, 6, 0, 0, [1, 1, 1, 0, 0, 1]>, <112, 11, 28, 17, 6, 0, 0, [1, 1, 1, 0, 0, 1]>, <113, 12, 29, 17, 6, 0, 0, [1, 1, 1, 0, 0, 1]>, <114, 0, 14, 14, 7, 0, 1, [1, 0, 0, 1, 1, 1]>, <115, 1, 15, 14, 7, 0, 1, [1, 0, 0, 1, 1, 1]>, <116, 2, 16, 14, 7, 0, 1, [1, 0, 0, 1, 1, 1]>, <117, 3, 17, 14, 7, 0, 1, [1, 0, 0, 1, 1, 1]>, <118, 4, 18, 14, 7, 0, 1, [1, 0, 0, 1, 1, 1]>, <119, 5, 19, 14, 7, 0, 1, [1, 0, 0, 1, 1, 1]>, <120, 6, 20, 14, 7, 0, 1, [1, 0, 0, 1, 1, 1]>, <121, 7, 21, 14, 7, 0, 1, [1, 0, 0, 1, 1, 1]>, <122, 8, 22, 14, 7, 0, 1, [1, 0, 0, 1, 1, 1]>, <123, 9, 23, 14, 7, 0, 1, [1, 0, 0, 1, 1, 1]>, <124, 10, 24, 14, 7, 0, 1, [1, 0, 0, 1, 1, 1]>, <125, 11, 25, 14, 7, 0, 1, [1, 0, 0, 1, 1, 1]>, <126, 12, 26, 14, 7, 0, 1, [1, 0, 0, 1, 1, 1]>, <127, 13, 27, 14, 7, 0, 1, [1, 0, 0, 1, 1, 1]>, <128, 14, 28, 14, 7, 0, 1, [1, 0, 0, 1, 1, 1]>, <129, 15, 29, 14, 7, 0, 1, [1, 0, 0, 1, 1, 1]>, <130, 0, 15, 15, 8, 0, 0, [1, 1, 1, 1, 0, 0]>, <131, 1, 16, 15, 8, 0, 0, [1, 1, 1, 1, 0, 0]>, <132, 2, 17, 15, 8, 0, 0, [1, 1, 1, 1, 0, 0]>, <133, 3, 18, 15, 8, 0, 0, [1, 1, 1, 1, 0, 0]>, <134, 4, 19, 15, 8, 0, 0, [1, 1, 1, 1, 0, 0]>, <135, 5, 20, 15, 8, 0, 0, [1, 1, 1, 1, 0, 0]>, <136, 6, 21, 15, 8, 0, 0, [1, 1, 1, 1, 0, 0]>, <137, 7, 22, 15, 8, 0, 0, [1, 1, 1, 1, 0, 0]>, <138, 8, 23, 15, 8, 0, 0, [1, 1, 1, 1, 0, 0]>, <139, 9, 24, 15, 8, 0, 0, [1, 1, 1, 1, 0, 0]>, <140, 10, 25, 15, 8, 0, 0, [1, 1, 1, 1, 0, 0]>, <141, 11, 26, 15, 8, 0, 0, [1, 1, 1, 1, 0, 0]>, <142, 12, 27, 15, 8, 0, 0, [1, 1, 1, 1, 0, 0]>, <143, 13, 28, 15, 8, 0, 0, [1, 1, 1, 1, 0, 0]>, <144, 14, 29, 15, 8, 0, 0, [1, 1, 1, 1, 0, 0]>, <145, 0, 16, 16, 9, 0, 1, [0, 1, 1, 1, 1, 0]>, <146, 1, 17, 16, 9, 0, 1, [0, 1, 1, 1, 1, 0]>, <147, 2, 18, 16, 9, 0, 1, [0, 1, 1, 1, 1, 0]>, <148, 3, 19, 16, 9, 0, 1, [0, 1, 1, 1, 1, 0]>, <149, 4, 20, 16, 9, 0, 1, [0, 1, 1, 1, 1, 0]>, <150, 5, 21, 16, 9, 0, 1, [0, 1, 1, 1, 1, 0]>, <151, 6, 22, 16, 9, 0, 1, [0, 1, 1, 1, 1, 0]>, <152, 7, 23, 16, 9, 0, 1, [0, 1, 1, 1, 1, 0]>, <153, 8, 24, 16, 9, 0, 1, [0, 1, 1, 1, 1, 0]>, <154, 9, 25, 16, 9, 0, 1, [0, 1, 1, 1, 1, 0]>, <155, 10, 26, 16, 9, 0, 1, [0, 1, 1, 1, 1, 0]>, <156, 11, 27, 16, 9, 0, 1, [0, 1, 1, 1, 1, 0]>, <157, 12, 28, 16, 9, 0, 1, [0, 1, 1, 1, 1, 0]>, <158, 13, 29, 16, 9, 0, 1, [0, 1, 1, 1, 1, 0]>, <159, 0, 15, 15, 10, 0, 0, [0, 1, 1, 1, 1, 0]>, <160, 1, 16, 15, 10, 0, 0, [0, 1, 1, 1, 1, 0]>, <161, 2, 17, 15, 10, 0, 0, [0, 1, 1, 1, 1, 0]>, <162, 3, 18, 15, 10, 0, 0, [0, 1, 1, 1, 1, 0]>, <163, 4, 19, 15, 10, 0, 0, [0, 1, 1, 1, 1, 0]>, <164, 5, 20, 15, 10, 0, 0, [0, 1, 1, 1, 1, 0]>, <165, 6, 21, 15, 10, 0, 0, [0, 1, 1, 1, 1, 0]>, <166, 7, 22, 15, 10, 0, 0, [0, 1, 1, 1, 1, 0]>, <167, 8, 23, 15, 10, 0, 0, [0, 1, 1, 1, 1, 0]>, <168, 9, 24, 15, 10, 0, 0, [0, 1, 1, 1, 1, 0]>, <169, 10, 25, 15, 10, 0, 0, [0, 1, 1, 1, 1, 0]>, <170, 11, 26, 15, 10, 0, 0, [0, 1, 1, 1, 1, 0]>, <171, 12, 27, 15, 10, 0, 0, [0, 1, 1, 1, 1, 0]>, <172, 13, 28, 15, 10, 0, 0, [0, 1, 1, 1, 1, 0]>, <173, 14, 29, 15, 10, 0, 0, [0, 1, 1, 1, 1, 0]>, <174, 0, 15, 15, 11, 0, 0, [1, 1, 0, 0, 1, 1]>, <175, 1, 16, 15, 11, 0, 0, [1, 1, 0, 0, 1, 1]>, <176, 2, 17, 15, 11, 0, 0, [1, 1, 0, 0, 1, 1]>, <177, 3, 18, 15, 11, 0, 0, [1, 1, 0, 0, 1, 1]>, <178, 4, 19, 15, 11, 0, 0, [1, 1, 0, 0, 1, 1]>, <179, 5, 20, 15, 11, 0, 0, [1, 1, 0, 0, 1, 1]>, <180, 6, 21, 15, 11, 0, 0, [1, 1, 0, 0, 1, 1]>, <181, 7, 22, 15, 11, 0, 0, [1, 1, 0, 0, 1, 1]>, <182, 8, 23, 15, 11, 0, 0, [1, 1, 0, 0, 1, 1]>, <183, 9, 24, 15, 11, 0, 0, [1, 1, 0, 0, 1, 1]>, <184, 10, 25, 15, 11, 0, 0, [1, 1, 0, 0, 1, 1]>, <185, 11, 26, 15, 11, 0, 0, [1, 1, 0, 0, 1, 1]>, <186, 12, 27, 15, 11, 0, 0, [1, 1, 0, 0, 1, 1]>, <187, 13, 28, 15, 11, 0, 0, [1, 1, 0, 0, 1, 1]>, <188, 14, 29, 15, 11, 0, 0, [1, 1, 0, 0, 1, 1]>, <189, 0, 15, 15, 12, 0, 1, [1, 0, 0, 1, 1, 1]>, <190, 1, 16, 15, 12, 0, 1, [1, 0, 0, 1, 1, 1]>, <191, 2, 17, 15, 12, 0, 1, [1, 0, 0, 1, 1, 1]>, <192, 3, 18, 15, 12, 0, 1, [1, 0, 0, 1, 1, 1]>, <193, 4, 19, 15, 12, 0, 1, [1, 0, 0, 1, 1, 1]>, <194, 5, 20, 15, 12, 0, 1, [1, 0, 0, 1, 1, 1]>, <195, 6, 21, 15, 12, 0, 1, [1, 0, 0, 1, 1, 1]>, <196, 7, 22, 15, 12, 0, 1, [1, 0, 0, 1, 1, 1]>, <197, 8, 23, 15, 12, 0, 1, [1, 0, 0, 1, 1, 1]>, <198, 9, 24, 15, 12, 0, 1, [1, 0, 0, 1, 1, 1]>, <199, 10, 25, 15, 12, 0, 1, [1, 0, 0, 1, 1, 1]>, <200, 11, 26, 15, 12, 0, 1, [1, 0, 0, 1, 1, 1]>, <201, 12, 27, 15, 12, 0, 1, [1, 0, 0, 1, 1, 1]>, <202, 13, 28, 15, 12, 0, 1, [1, 0, 0, 1, 1, 1]>, <203, 14, 29, 15, 12, 0, 1, [1, 0, 0, 1, 1, 1]>, <204, 0, 13, 13, 13, 0, 0, [1, 1, 1, 1, 0, 0]>, <205, 1, 14, 13, 13, 0, 0, [1, 1, 1, 1, 0, 0]>, <206, 2, 15, 13, 13, 0, 0, [1, 1, 1, 1, 0, 0]>, <207, 3, 16, 13, 13, 0, 0, [1, 1, 1, 1, 0, 0]>, <208, 4, 17, 13, 13, 0, 0, [1, 1, 1, 1, 0, 0]>, <209, 5, 18, 13, 13, 0, 0, [1, 1, 1, 1, 0, 0]>, <210, 7, 20, 13, 13, 0, 0, [1, 1, 1, 1, 0, 0]>, <211, 8, 21, 13, 13, 0, 0, [1, 1, 1, 1, 0, 0]>, <212, 9, 22, 13, 13, 0, 0, [1, 1, 1, 1, 0, 0]>, <213, 10, 23, 13, 13, 0, 0, [1, 1, 1, 1, 0, 0]>, <214, 11, 24, 13, 13, 0, 0, [1, 1, 1, 1, 0, 0]>, <215, 12, 25, 13, 13, 0, 0, [1, 1, 1, 1, 0, 0]>, <216, 13, 26, 13, 13, 0, 0, [1, 1, 1, 1, 0, 0]>, <217, 14, 27, 13, 13, 0, 0, [1, 1, 1, 1, 0, 0]>, <218, 15, 28, 13, 13, 0, 0, [1, 1, 1, 1, 0, 0]>, <219, 16, 29, 13, 13, 0, 0, [1, 1, 1, 1, 0, 0]>, <220, 0, 15, 15, 14, 1, 0, [1, 1, 1, 1, 0, 0]>, <221, 1, 16, 15, 14, 1, 0, [1, 1, 1, 1, 0, 0]>, <222, 2, 17, 15, 14, 1, 0, [1, 1, 1, 1, 0, 0]>, <223, 3, 18, 15, 14, 1, 0, [1, 1, 1, 1, 0, 0]>, <224, 4, 19, 15, 14, 1, 0, [1, 1, 1, 1, 0, 0]>, <225, 5, 20, 15, 14, 1, 0, [1, 1, 1, 1, 0, 0]>, <226, 6, 21, 15, 14, 1, 0, [1, 1, 1, 1, 0, 0]>, <227, 7, 22, 15, 14, 1, 0, [1, 1, 1, 1, 0, 0]>, <228, 8, 23, 15, 14, 1, 0, [1, 1, 1, 1, 0, 0]>, <229, 9, 24, 15, 14, 1, 0, [1, 1, 1, 1, 0, 0]>, <230, 10, 25, 15, 14, 1, 0, [1, 1, 1, 1, 0, 0]>, <231, 11, 26, 15, 14, 1, 0, [1, 1, 1, 1, 0, 0]>, <232, 12, 27, 15, 14, 1, 0, [1, 1, 1, 1, 0, 0]>, <233, 13, 28, 15, 14, 1, 0, [1, 1, 1, 1, 0, 0]>, <234, 14, 29, 15, 14, 1, 0, [1, 1, 1, 1, 0, 0]>};
